NAME : u1817.57201.tour
COMMENT : Length = 57201
COMMENT : Found by LKH [Keld Helsgaun] Sat Aug 18 18:53:33 2012
TYPE : TOUR
DIMENSION : 1817
TOUR_SECTION
1
2
3
4
5
6
7
8
9
10
11
12
13
14
15
16
17
18
19
20
21
22
23
24
25
26
27
28
29
30
31
32
33
34
35
36
37
38
41
40
39
47
48
49
50
51
46
45
44
42
43
54
53
52
61
62
63
64
60
59
58
57
56
55
69
70
68
67
66
65
71
72
73
74
75
76
77
78
79
80
86
87
88
89
90
85
84
83
81
82
91
94
95
96
97
98
99
100
101
102
103
104
92
93
105
106
107
108
109
110
111
112
113
133
134
229
230
231
232
233
241
234
235
236
237
238
239
240
1672
1673
1674
1675
1647
1646
1645
1654
1655
1656
1660
1661
1663
1671
1669
1670
1668
1667
1151
1666
1665
1664
1662
1659
1658
1657
1653
1648
1649
1652
1650
1651
1166
1167
1168
1165
1164
1163
1162
1161
1160
1158
1159
1157
1156
1154
1155
1153
1145
1146
1148
1152
1150
1149
1147
280
281
279
278
277
276
275
274
268
267
266
265
264
257
256
255
254
253
252
251
250
243
244
242
132
131
130
129
128
115
116
114
118
119
117
120
121
123
122
124
125
126
127
245
246
247
248
249
258
259
260
261
262
263
269
270
271
272
273
282
283
284
285
286
287
288
291
289
290
292
294
293
295
296
298
297
300
299
301
302
304
303
315
314
313
312
311
310
309
308
307
306
305
1115
1114
1113
1112
1111
1110
1109
1108
1107
1106
1105
1104
1103
1102
1101
1100
1118
1117
1116
1121
1122
1123
1127
1126
1125
1124
1130
1131
1132
1134
1133
1144
1143
1142
1137
1136
1135
1129
1128
1304
1305
1306
1307
1308
1309
1310
1311
1318
1319
1320
1321
1336
1335
1334
1317
1316
1315
1314
1313
1312
1303
1302
1301
1300
1299
1141
1140
1139
1138
1290
1291
1292
1293
1294
1295
1296
1297
1298
1380
1383
1382
1381
1282
1281
1280
1279
1288
1289
1175
1169
1170
1171
1173
1174
1176
1178
1179
1177
1180
1181
1182
1183
1191
1190
1184
1189
1188
1185
1620
1621
1622
1629
1630
1633
1634
1637
1638
1641
1642
1172
1643
1644
1640
1639
1636
1635
1632
1631
1627
1626
1628
1625
1624
1623
1186
1187
1619
1618
1617
1614
1616
1615
1613
1610
1611
1612
1602
1601
1600
1603
1604
1605
1606
1607
1608
1609
1570
1571
1572
1573
1574
1575
1493
1494
1566
1567
1568
1569
1562
1563
1564
1565
1495
1496
1497
1492
1576
1577
1578
1579
1580
1581
1582
1583
1584
1585
1586
1590
1589
1588
1587
1595
1594
1593
1592
1591
1216
1215
1596
1597
1598
1599
1214
1213
1212
1211
1210
1217
1218
1219
1250
1251
1205
1206
1207
1208
1209
1198
1199
1200
1201
1202
1203
1204
1252
1253
1254
1259
1258
1257
1256
1255
1197
1196
1195
1194
1192
1193
1269
1268
1267
1266
1265
1263
1264
1270
1271
1272
1273
1274
1275
1276
1277
1278
1287
1286
1285
1284
1283
1384
1385
1386
1389
1390
1391
1392
1361
1360
1359
1393
1394
1395
1396
1397
1387
1388
1260
1262
1261
1398
1399
1400
1401
1402
1240
1239
1238
1237
1236
1235
1234
1249
1248
1247
1233
1244
1243
1242
1241
1229
1230
1231
1232
1245
1246
1220
1221
1222
1223
1224
1225
1226
1228
1227
1432
1433
1434
1435
1424
1425
1426
469
1422
1423
1427
1428
1429
1430
1431
1416
1417
1418
1419
1420
1421
1409
1410
1411
1412
1413
1414
1415
1403
1404
1405
1406
1407
1408
448
449
450
451
452
456
457
455
454
453
445
446
447
444
443
442
441
440
439
438
432
433
434
435
436
437
423
422
421
420
410
411
412
397
398
396
395
399
401
400
402
403
405
404
406
409
408
407
392
393
394
391
390
389
388
387
1349
1350
1351
1352
1353
1354
1355
1356
1357
1358
1348
1347
1346
1345
1344
1370
1369
1368
1367
1366
1365
1364
1363
1362
1379
1378
1377
1376
1375
1374
1373
1372
1371
1333
1332
1331
1330
1329
1328
1327
1326
1325
1324
1323
1322
1090
1091
1092
1095
1094
1093
1120
1119
1099
1098
1097
1096
1089
1088
1086
1087
1081
1080
1079
1078
1077
320
319
317
316
318
321
322
324
323
325
326
328
327
1071
1072
1068
1069
1067
1066
1064
1065
1063
1062
1061
1060
1058
1059
969
970
968
967
965
966
964
963
961
962
960
959
957
958
955
956
953
954
951
952
906
907
905
904
902
903
910
911
912
913
914
915
916
917
918
854
855
856
857
858
859
866
867
868
869
901
900
899
898
897
896
895
894
863
864
865
862
861
870
871
860
876
872
873
875
874
853
845
852
844
846
847
842
841
840
839
848
849
843
850
851
886
887
888
889
890
891
892
893
877
878
879
880
881
882
883
884
885
826
827
828
829
830
831
832
824
825
833
834
835
836
837
838
815
816
817
818
819
820
821
822
823
773
772
774
775
776
791
792
793
794
795
814
813
812
811
810
809
806
807
808
799
798
797
796
800
801
802
803
804
805
919
920
921
922
927
928
929
930
931
932
909
908
933
934
935
926
925
924
923
944
936
945
946
947
948
949
950
937
938
939
940
941
942
943
980
981
982
979
978
977
976
975
973
974
983
984
985
986
989
990
991
992
993
994
995
996
997
1007
999
1000
1019
1008
998
1021
1020
1009
1010
1016
1018
1017
1012
1013
1011
1015
1014
1028
1027
1026
1025
1024
1023
1022
988
987
1040
1041
1042
1043
1044
1045
972
971
1046
1047
1048
1049
1039
1038
1037
1050
1051
1052
1053
1054
1055
1056
1057
344
345
346
347
348
349
350
355
354
351
343
341
339
338
1070
337
336
340
342
352
353
356
333
334
335
332
331
330
329
1073
1074
1075
1076
1082
1083
1084
1085
1337
1338
1339
1340
1341
1342
1343
361
362
363
364
360
359
358
357
365
366
367
368
370
371
369
372
381
382
380
383
385
386
384
379
378
377
376
375
374
373
1036
1035
1034
1033
1032
1031
1030
1029
413
414
415
416
417
418
419
424
431
430
429
428
427
426
425
647
648
646
649
650
651
652
653
1001
1002
1003
1004
1005
1006
658
657
656
655
654
674
675
673
672
671
663
662
661
660
659
664
665
666
667
668
669
670
676
677
678
679
680
681
682
683
631
632
633
634
637
636
635
645
644
643
642
641
640
639
638
630
629
628
627
626
625
624
623
622
621
620
619
618
612
613
617
616
615
614
458
459
590
591
592
593
594
595
586
587
588
589
460
461
462
463
468
467
466
465
464
575
577
576
579
578
581
580
585
582
584
583
596
597
598
599
600
601
602
710
711
603
604
605
606
611
610
609
608
607
708
709
707
706
705
704
703
702
690
691
692
693
701
700
699
698
697
695
696
694
685
686
689
687
688
684
783
782
781
780
779
778
777
790
789
788
787
786
785
784
771
770
769
763
764
765
766
767
760
761
762
768
752
753
754
751
755
756
757
758
759
744
745
746
747
748
749
750
740
741
742
739
738
743
735
736
734
737
724
725
726
723
727
728
733
729
732
731
730
713
712
714
715
716
717
718
722
721
720
719
539
540
541
537
542
543
538
544
545
546
536
534
533
535
547
548
551
552
553
557
556
560
558
559
561
565
562
564
563
566
567
568
569
570
571
574
573
572
555
554
518
519
520
522
521
528
530
550
549
531
532
529
524
525
523
527
526
516
517
515
513
512
514
511
509
508
510
507
505
506
500
497
496
493
492
489
488
487
1452
486
490
491
494
495
498
499
501
504
503
502
473
472
474
475
471
476
478
479
477
482
480
481
485
484
483
470
1436
1437
1438
1439
1440
1441
1442
1443
1444
1445
1446
1447
1458
1459
1460
1462
1461
1463
1464
1465
1466
1467
1448
1457
1456
1451
1453
1454
1450
1455
1449
1468
1469
1472
1470
1471
1473
1476
1474
1475
1477
1478
1480
1479
1481
1483
1482
1484
1485
1486
1488
1487
1490
1489
1491
1501
1502
1503
1504
1505
1500
1499
1498
1508
1509
1510
1511
1512
1520
1518
1513
1514
1507
1506
1515
1516
1517
1519
1521
1522
1527
1523
1526
1524
1525
1533
1534
1532
1545
1544
1538
1539
1536
1535
1537
1777
1779
1781
1782
1784
1783
1785
1780
1778
1776
1775
1540
1541
1542
1543
1548
1547
1546
1530
1531
1528
1529
1550
1549
1551
1558
1557
1556
1555
1553
1552
1554
1774
1769
1770
1768
1771
1773
1772
1765
1766
1764
1767
1763
1762
1761
1559
1560
1561
1759
1760
1758
1757
1756
1755
1754
1751
1752
1753
1741
1742
1743
1744
1745
1746
1747
1748
1749
1750
1740
1739
1738
1737
1736
1735
1734
1733
1732
1731
1730
1729
1728
1727
1726
1725
1720
1721
1722
1723
1724
1719
1718
1717
1716
1715
1712
1713
1714
1702
1703
1704
1705
1706
1707
1708
1709
1710
1711
1701
1700
1699
1698
1697
1696
1695
1694
1693
1692
1691
1690
1689
1686
1687
1688
1677
1678
1679
1676
1680
1681
1682
1683
1684
1685
227
228
226
225
135
136
137
138
139
140
224
223
222
221
220
219
218
141
142
143
144
145
146
214
215
216
217
210
211
212
213
147
148
149
150
151
205
206
207
208
209
200
201
202
203
204
154
153
152
155
156
157
199
198
197
196
195
194
161
160
159
158
164
163
162
191
192
193
187
188
189
190
165
166
167
169
168
186
185
184
183
179
180
181
182
172
171
170
173
174
175
176
177
178
1793
1794
1795
1796
1797
1798
1799
1800
1801
1802
1792
1791
1790
1789
1786
1787
1788
1803
1804
1805
1806
1807
1810
1811
1808
1809
1812
1813
1814
1815
1816
1817
-1
EOF
